12322 13731 14110
13181 14986 13971
13030 13946 14064
12635 16063 13576
13530 15889 13698
12193 14136 14086
17066 15736 11837
16406 15835 12800
12870 14379 14039
17158 14045 9925
11323 13990 14129
16486 16287 12411
14303 17113 11700
16076 16973 12271
17134 14728 10820
17053 16326 11130
13164 15697 13826
15271 16940 12872
12901 14351 14040
11725 13328 14163
14927 15376 13572
16933 16567 10712
12442 14799 14016
15715 15868 13114
13310 14581 13995
14153 15077 13863
16004 16418 12809
17156 14923 9556
17132 15606 10451
14387 16534 13230
13150 15014 13970
14775 17117 10810
11017 13113 14209
12162 14164 14085
15253 16388 13187
15498 15263 13351
16651 16909 11139
15925 17004 11312
14391 15700 13641
13438 15402 13896
